(set-info :smt-lib-version 2.6)
(set-logic QF_S)
(set-info :source |
Generated by: Oliver Markgraf, Hongjian Jiang, Daniel Stan, Anthony W. Lin, Philipp Ruemmer
Generated on: 2025-04-08
Application: Using String Solvers to solve RMC problems encoded as CHC over Strings
Target solver: cvc5, OSTRICH, Z3, Z3alpha, Z3-noodler
Time limit: 60.0
Benchmarks are extracted by running HornStr https://arg-git.informatik.uni-kl.de/pub/string-chc-lib on all benchmarks
provided in the repository and gathering the string queries sent to the string solvers.
|)
(set-info :license "https://creativecommons.org/licenses/by/4.0/")
(set-info :category "industrial")
(set-info :status unknown)
(declare-fun varout () String)
(assert (let ((a!1 (re.union (re.union (re.union (str.to_re "c") (str.to_re "b"))
                               (str.to_re "H"))
                     (str.to_re "a"))))
(let ((a!2 (re.* (re.union (re.union a!1 (str.to_re "d")) (str.to_re "E")))))
  (str.in_re varout a!2))))
(declare-fun varin () String)
(assert (let ((a!1 (re.union (re.union (re.union (str.to_re "c") (str.to_re "b"))
                               (str.to_re "H"))
                     (str.to_re "a"))))
(let ((a!2 (re.* (re.union (re.union a!1 (str.to_re "d")) (str.to_re "E")))))
  (str.in_re varin a!2))))
(declare-fun X () String)
(declare-fun isin () Bool)
(declare-fun isout () Bool)
(assert (let ((a!1 (re.union (re.union (re.union (str.to_re "d") (str.to_re "c"))
                               (str.to_re "b"))
                     (str.to_re "H")))
      (a!5 (re.union (re.union (re.union (str.to_re "E") (str.to_re "d"))
                               (str.to_re "c"))
                     (str.to_re "b"))))
(let ((a!2 (re.++ (re.* (re.union a!1 (str.to_re "a"))) (str.to_re "E")))
      (a!6 (re.* (re.union (re.union a!5 (str.to_re "H")) (str.to_re "a")))))
(let ((a!3 (re.union (str.to_re "E") (re.++ (re.union a!1 (str.to_re "a")) a!2)))
      (a!7 (re.++ (re.union (re.union a!5 (str.to_re "H")) (str.to_re "a")) a!6)))
(let ((a!4 (re.++ (re.* (re.union a!1 (str.to_re "a"))) a!3)))
(let ((a!8 (re.++ (re.++ a!4 (str.to_re "E"))
                  (re.++ a!6 (re.union (str.to_re "") a!7)))))
  (or (and (str.in_re X a!8) true (= X varin) isin (not isout)))))))))
(assert (let ((a!1 (re.union (re.union (re.union (str.to_re "c") (str.to_re "b"))
                               (str.to_re "H"))
                     (str.to_re "a"))))
(let ((a!2 (re.++ (re.union a!1 (str.to_re "d"))
                  (re.* (re.union a!1 (str.to_re "d"))))))
(let ((a!3 (re.++ (re.* (re.union a!1 (str.to_re "d")))
                  (re.union (str.to_re "") a!2))))
  (str.in_re varin a!3)))))
(check-sat)
(exit)
